Traveling Salesman Problem/TSP_generados/Aleatorio1620392152_16.tsp
NAME: Aleatorio1620392152_16.tsp
COMMENT: Randomly generated scenario
TYPE: TSP
DIMENSION: 16
EDGE_WEIGHT_TYPE: ATT
NODE_COORD_SECTION
1 49.36 42.31
2 34.2 6.18
3 14.84 31.52
4 8.92 12.94
5 22.08 2.23
6 49.25 34.56
7 29.97 0.96
8 2.79 14.2
9 25.85 35.94
10 48.47 38.82
11 21.54 46.42
12 35.88 28.81
13 10.04 23.95
14 44.94 42.55
15 3.57 48.51
16 40.16 11.55
