Traveling Salesman Problem/TSP_generados/Aleatorio1620392152_16.opt.tour
NAME: Aleatorio1620392152_16.opt.tour
COMMENT: Optimal solution for Aleatorio1620392152_16 (181.7803833266646)
TYPE: TOUR
DIMENSION: 16
TOUR_SECTION
1 10 6 12 16 2 7 5 4 8 13 3 15 11 9 14
-1
EOF
